0 0 0 0
0 1 0 0
0 2 1 0
0 3 1 0
0 4 0 2
0 5 0 6
0 6 0 7
0 7 0 8
0 8 0 6
0 9 1 2
0 10 2 2
0 11 0 10
0 12 2 7
0 13 0 10
0 14 0 8
0 15 0 9
0 16 0 9
0 17 1 12
0 18 1 11
0 19 2 6
0 20 0 9
0 21 0 15
0 22 0 11
0 23 0 11
0 24 0 15
0 25 0 18
0 26 2 11
0 27 2 18
0 28 1 18
0 29 1 17
0 30 0 21
0 31 0 24
